c 
c MolecularSimulation 1.0.2
c Simulation written: Tue Aug 14 15:19:26 2012
c Test: Ogihara-Ray
c Input: ./data/testCNF/SWEEP_R14_K3_N16_M224_S000.cnf
c 
s UNSATISFIABLE
v 0
c algorithmType:  Ogihara-Ray
c algorithmTime:  0.006264
c solutionMemory: 0
c mixCount:       504
c extractCount:   672
c appendCount:    28
c splitCount:     14
c spliceCount:    0
c purifyCount:    238
c numVar:         16
c numClause:      224
c 
